3
Properties=species:S:1:pos:R:3 mu="-0.734398 -0.0 -0.040971" beta="14.553606 -0.0 0.184257 -0.0 10.77828 -0.0 0.184257 -0.0 5.6182 -0.0 10.77828 -0.0 10.77828 -0.0 0.601308 -0.0 0.601308 -0.0 0.184257 -0.0 5.6182 -0.0 0.601308 -0.0 5.6182 -0.0 0.941105" potential=-76.3489282585 pbc="F F F" alpha="9.812358 -0.0 0.019696 -0.0 10.287476 0.0 0.019696 0.0 9.460413" electro=-152.26521843207865
O       0.06633400       0.00000000       0.00370100 
H      -0.52638300      -0.76932700      -0.02936600 
H      -0.52638300       0.76932700      -0.02936600 